peakDumbCharging = 29600; 
Machine = anon_enum(16); 
machineSpeed = [3700,3700,3700,3700,3700,3700,3700,3700,3700,3700,3700,3700,3700,3700,3700,3700]; 
machineLoad = [3700,3700,3700,3700,3700,3700,3700,3700,3700,3700,3700,3700,3700,3700,3700,3700]; 
Car = anon_enum(32); 
demandCar = [15160,21960,5720,9640,200,15560,880,4920,12360,11160,12160,15360,5560,19760,7000,3760,5840,27200,9520,7760,7280,20840,2480,5920,9240,2400,6800,5680,7120,18080,4760,32480]; 
arrivalCar = [74,71,71,65,64,63,63,63,62,62,59,55,55,54,53,53,53,53,52,51,51,47,46,45,45,43,41,40,40,38,37,28]; 
departureCar = [79,80,73,71,65,70,65,74,67,68,64,61,58,66,59,57,56,65,58,56,55,54,49,48,49,45,44,45,45,46,40,44]; 
